2-dimensional/CL_10_24_08.vbp
2
100 100 
24
26 49 30
47 43 72
47 34 4
46 40 88
30 44 54
43 31 64
36 43 90
43 28 26
29 42 94
42 39 28
26 42 72
41 32 49
40 28 54
39 23 19
33 39 28
36 35 61
32 35 84
27 33 23
17 31 67
31 30 53
29 24 54
28 11 16
21 26 9
11 18 54
