2-dimensional/CL_10_24_08.txt
100 100 
0 30 26 49 
1 72 47 43 
2 4 47 34 
3 88 46 40 
4 54 30 44 
5 64 43 31 
6 90 36 43 
7 26 43 28 
8 94 29 42 
9 28 42 39 
10 72 26 42 
11 49 41 32 
12 54 40 28 
13 19 39 23 
14 28 33 39 
15 61 36 35 
16 84 32 35 
17 23 27 33 
18 67 17 31 
19 53 31 30 
20 54 29 24 
21 16 28 11 
22 9 21 26 
23 54 11 18 
